p cnf 145 512
c p weight 16 -1 0
c p weight -16 1 0
c p weight 18 6.12323399573676603586882014729198302312846062338790031898128063403419218957424163818359375E-17 0
c p weight -18 1 0
c p weight 19 1 0
c p weight -19 1 0
c p weight 20 -1 0
c p weight -20 1 0
c p weight 22 -1 0
c p weight -22 1 0
c p weight 23 -1 0
c p weight -23 1 0
c p weight 25 -1 0
c p weight -25 1 0
c p weight 27 6.12323399573676603586882014729198302312846062338790031898128063403419218957424163818359375E-17 0
c p weight -27 1 0
c p weight 28 1 0
c p weight -28 1 0
c p weight 29 -1 0
c p weight -29 1 0
c p weight 31 -1 0
c p weight -31 1 0
c p weight 32 -1 0
c p weight -32 1 0
c p weight 34 -1 0
c p weight -34 1 0
c p weight 36 6.12323399573676603586882014729198302312846062338790031898128063403419218957424163818359375E-17 0
c p weight -36 1 0
c p weight 37 1 0
c p weight -37 1 0
c p weight 38 -1 0
c p weight -38 1 0
c p weight 40 -1 0
c p weight -40 1 0
c p weight 42 -1 0
c p weight -42 1 0
c p weight 44 6.12323399573676603586882014729198302312846062338790031898128063403419218957424163818359375E-17 0
c p weight -44 1 0
c p weight 45 1 0
c p weight -45 1 0
c p weight 46 -1 0
c p weight -46 1 0
c p weight 48 -1 0
c p weight -48 1 0
c p weight 49 -1 0
c p weight -49 1 0
c p weight 51 -1 0
c p weight -51 1 0
c p weight 53 6.12323399573676603586882014729198302312846062338790031898128063403419218957424163818359375E-17 0
c p weight -53 1 0
c p weight 54 1 0
c p weight -54 1 0
c p weight 55 -1 0
c p weight -55 1 0
c p weight 57 -1 0
c p weight -57 1 0
c p weight 59 -1 0
c p weight -59 1 0
c p weight 61 6.12323399573676603586882014729198302312846062338790031898128063403419218957424163818359375E-17 0
c p weight -61 1 0
c p weight 62 1 0
c p weight -62 1 0
c p weight 63 -1 0
c p weight -63 1 0
c p weight 65 -1 0
c p weight -65 1 0
c p weight 66 -1 0
c p weight -66 1 0
c p weight 67 -1 0
c p weight -67 1 0
c p weight 69 -1 0
c p weight -69 1 0
c p weight 71 6.12323399573676603586882014729198302312846062338790031898128063403419218957424163818359375E-17 0
c p weight -71 1 0
c p weight 72 1 0
c p weight -72 1 0
c p weight 73 -1 0
c p weight -73 1 0
c p weight 75 -1 0
c p weight -75 1 0
c p weight 78 -1 0
c p weight -78 1 0
c p weight 79 -1 0
c p weight -79 1 0
c p weight 81 -1 0
c p weight -81 1 0
c p weight 83 6.12323399573676603586882014729198302312846062338790031898128063403419218957424163818359375E-17 0
c p weight -83 1 0
c p weight 84 1 0
c p weight -84 1 0
c p weight 85 -1 0
c p weight -85 1 0
c p weight 87 -1 0
c p weight -87 1 0
c p weight 90 -1 0
c p weight -90 1 0
c p weight 91 -1 0
c p weight -91 1 0
c p weight 93 -1 0
c p weight -93 1 0
c p weight 95 6.12323399573676603586882014729198302312846062338790031898128063403419218957424163818359375E-17 0
c p weight -95 1 0
c p weight 96 1 0
c p weight -96 1 0
c p weight 97 -1 0
c p weight -97 1 0
c p weight 99 -1 0
c p weight -99 1 0
c p weight 102 -1 0
c p weight -102 1 0
c p weight 104 -1 0
c p weight -104 1 0
c p weight 106 6.12323399573676603586882014729198302312846062338790031898128063403419218957424163818359375E-17 0
c p weight -106 1 0
c p weight 107 1 0
c p weight -107 1 0
c p weight 108 -1 0
c p weight -108 1 0
c p weight 110 -1 0
c p weight -110 1 0
c p weight 113 -1 0
c p weight -113 1 0
c p weight 114 -1 0
c p weight -114 1 0
c p weight 116 -1 0
c p weight -116 1 0
c p weight 118 6.12323399573676603586882014729198302312846062338790031898128063403419218957424163818359375E-17 0
c p weight -118 1 0
c p weight 119 1 0
c p weight -119 1 0
c p weight 120 -1 0
c p weight -120 1 0
c p weight 122 -1 0
c p weight -122 1 0
c p weight 125 -1 0
c p weight -125 1 0
c p weight 127 -1 0
c p weight -127 1 0
c p weight 129 6.12323399573676603586882014729198302312846062338790031898128063403419218957424163818359375E-17 0
c p weight -129 1 0
c p weight 130 1 0
c p weight -130 1 0
c p weight 131 -1 0
c p weight -131 1 0
c p weight 133 -1 0
c p weight -133 1 0
c p weight 136 -1 0
c p weight -136 1 0
c p weight 137 -1 0
c p weight -137 1 0
c p weight 139 -1 0
c p weight -139 1 0
c p weight 141 6.12323399573676603586882014729198302312846062338790031898128063403419218957424163818359375E-17 0
c p weight -141 1 0
c p weight 142 1 0
c p weight -142 1 0
c p weight 143 -1 0
c p weight -143 1 0
c p weight 145 -1 0
c p weight -145 1 0
-13 0
-11 0
-9 0
-7 0
-5 0
-3 0
-1 0
15 1 -2 0
15 -1 2 0
-15 1 2 0
-15 -1 -2 0
-16 1 0
-16 2 0
16 -1 -2 0
17 -1 15 0
-17 1 15 0
-18 15 0
17 -18 -1 0
-17 -18 1 0
17 18 1 -15 0
-17 18 -1 -15 0
-19 15 0
17 -19 1 0
-17 -19 -1 0
17 19 -1 -15 0
-17 19 1 -15 0
-20 17 0
-20 15 0
-20 -1 0
20 -17 1 -15 0
21 17 -15 0
21 -17 15 0
-21 17 15 0
-21 -17 -15 0
-22 17 0
-22 15 0
22 -17 -15 0
23 -21 0
-23 21 0
24 3 -4 0
24 -3 4 0
-24 3 4 0
-24 -3 -4 0
-25 3 0
-25 4 0
25 -3 -4 0
26 -3 24 0
-26 3 24 0
-27 24 0
26 -27 -3 0
-26 -27 3 0
26 27 3 -24 0
-26 27 -3 -24 0
-28 24 0
26 -28 3 0
-26 -28 -3 0
26 28 -3 -24 0
-26 28 3 -24 0
-29 26 0
-29 24 0
-29 -3 0
29 -26 3 -24 0
30 26 -24 0
30 -26 24 0
-30 26 24 0
-30 -26 -24 0
-31 26 0
-31 24 0
31 -26 -24 0
32 -30 0
-32 30 0
33 5 -6 0
33 -5 6 0
-33 5 6 0
-33 -5 -6 0
-34 5 0
-34 6 0
34 -5 -6 0
35 -5 33 0
-35 5 33 0
-36 33 0
35 -36 -5 0
-35 -36 5 0
35 36 5 -33 0
-35 36 -5 -33 0
-37 33 0
35 -37 5 0
-35 -37 -5 0
35 37 -5 -33 0
-35 37 5 -33 0
-38 35 0
-38 33 0
-38 -5 0
38 -35 5 -33 0
39 35 -33 0
39 -35 33 0
-39 35 33 0
-39 -35 -33 0
-40 35 0
-40 33 0
40 -35 -33 0
41 7 -8 0
41 -7 8 0
-41 7 8 0
-41 -7 -8 0
-42 7 0
-42 8 0
42 -7 -8 0
43 -7 41 0
-43 7 41 0
-44 41 0
43 -44 -7 0
-43 -44 7 0
43 44 7 -41 0
-43 44 -7 -41 0
-45 41 0
43 -45 7 0
-43 -45 -7 0
43 45 -7 -41 0
-43 45 7 -41 0
-46 43 0
-46 41 0
-46 -7 0
46 -43 7 -41 0
47 43 -41 0
47 -43 41 0
-47 43 41 0
-47 -43 -41 0
-48 43 0
-48 41 0
48 -43 -41 0
49 -47 0
-49 47 0
50 9 -10 0
50 -9 10 0
-50 9 10 0
-50 -9 -10 0
-51 9 0
-51 10 0
51 -9 -10 0
52 -9 50 0
-52 9 50 0
-53 50 0
52 -53 -9 0
-52 -53 9 0
52 53 9 -50 0
-52 53 -9 -50 0
-54 50 0
52 -54 9 0
-52 -54 -9 0
52 54 -9 -50 0
-52 54 9 -50 0
-55 52 0
-55 50 0
-55 -9 0
55 -52 9 -50 0
56 52 -50 0
56 -52 50 0
-56 52 50 0
-56 -52 -50 0
-57 52 0
-57 50 0
57 -52 -50 0
58 11 -12 0
58 -11 12 0
-58 11 12 0
-58 -11 -12 0
-59 11 0
-59 12 0
59 -11 -12 0
60 -11 58 0
-60 11 58 0
-61 58 0
60 -61 -11 0
-60 -61 11 0
60 61 11 -58 0
-60 61 -11 -58 0
-62 58 0
60 -62 11 0
-60 -62 -11 0
60 62 -11 -58 0
-60 62 11 -58 0
-63 60 0
-63 58 0
-63 -11 0
63 -60 11 -58 0
64 60 -58 0
64 -60 58 0
-64 60 58 0
-64 -60 -58 0
-65 60 0
-65 58 0
65 -60 -58 0
66 -64 0
-66 64 0
67 -14 0
-67 14 0
68 13 -14 0
68 -13 14 0
-68 13 14 0
-68 -13 -14 0
-69 13 0
-69 14 0
69 -13 -14 0
70 -13 68 0
-70 13 68 0
-71 68 0
70 -71 -13 0
-70 -71 13 0
70 71 13 -68 0
-70 71 -13 -68 0
-72 68 0
70 -72 13 0
-70 -72 -13 0
70 72 -13 -68 0
-70 72 13 -68 0
-73 70 0
-73 68 0
-73 -13 0
73 -70 13 -68 0
74 70 -68 0
74 -70 68 0
-74 70 68 0
-74 -70 -68 0
-75 70 0
-75 68 0
75 -70 -68 0
76 17 -70 0
76 -17 70 0
-76 17 70 0
-76 -17 -70 0
77 21 -74 0
77 -21 74 0
-77 21 74 0
-77 -21 -74 0
-78 17 0
-78 74 0
-78 70 -21 0
-78 -70 21 0
78 -17 70 21 -74 0
78 -17 -70 -21 -74 0
79 -77 0
-79 77 0
80 17 -77 0
80 -17 77 0
-80 17 77 0
-80 -17 -77 0
-81 17 0
-81 77 0
81 -17 -77 0
82 -17 80 0
-82 17 80 0
-83 80 0
82 -83 -17 0
-82 -83 17 0
82 83 17 -80 0
-82 83 -17 -80 0
-84 80 0
82 -84 17 0
-82 -84 -17 0
82 84 -17 -80 0
-82 84 17 -80 0
-85 82 0
-85 80 0
-85 -17 0
85 -82 17 -80 0
86 82 -80 0
86 -82 80 0
-86 82 80 0
-86 -82 -80 0
-87 82 0
-87 80 0
87 -82 -80 0
88 26 -76 0
88 -26 76 0
-88 26 76 0
-88 -26 -76 0
89 30 -74 0
89 -30 74 0
-89 30 74 0
-89 -30 -74 0
-90 26 0
-90 74 0
-90 76 -30 0
-90 -76 30 0
90 -26 76 30 -74 0
90 -26 -76 -30 -74 0
91 -89 0
-91 89 0
92 26 -89 0
92 -26 89 0
-92 26 89 0
-92 -26 -89 0
-93 26 0
-93 89 0
93 -26 -89 0
94 -26 92 0
-94 26 92 0
-95 92 0
94 -95 -26 0
-94 -95 26 0
94 95 26 -92 0
-94 95 -26 -92 0
-96 92 0
94 -96 26 0
-94 -96 -26 0
94 96 -26 -92 0
-94 96 26 -92 0
-97 94 0
-97 92 0
-97 -26 0
97 -94 26 -92 0
98 94 -92 0
98 -94 92 0
-98 94 92 0
-98 -94 -92 0
-99 94 0
-99 92 0
99 -94 -92 0
100 35 -88 0
100 -35 88 0
-100 35 88 0
-100 -35 -88 0
101 39 -74 0
101 -39 74 0
-101 39 74 0
-101 -39 -74 0
-102 35 0
-102 74 0
-102 88 -39 0
-102 -88 39 0
102 -35 88 39 -74 0
102 -35 -88 -39 -74 0
103 35 -101 0
103 -35 101 0
-103 35 101 0
-103 -35 -101 0
-104 35 0
-104 101 0
104 -35 -101 0
105 -35 103 0
-105 35 103 0
-106 103 0
105 -106 -35 0
-105 -106 35 0
105 106 35 -103 0
-105 106 -35 -103 0
-107 103 0
105 -107 35 0
-105 -107 -35 0
105 107 -35 -103 0
-105 107 35 -103 0
-108 105 0
-108 103 0
-108 -35 0
108 -105 35 -103 0
109 105 -103 0
109 -105 103 0
-109 105 103 0
-109 -105 -103 0
-110 105 0
-110 103 0
110 -105 -103 0
111 43 -100 0
111 -43 100 0
-111 43 100 0
-111 -43 -100 0
112 47 -74 0
112 -47 74 0
-112 47 74 0
-112 -47 -74 0
-113 43 0
-113 74 0
-113 100 -47 0
-113 -100 47 0
113 -43 100 47 -74 0
113 -43 -100 -47 -74 0
114 -112 0
-114 112 0
115 43 -112 0
115 -43 112 0
-115 43 112 0
-115 -43 -112 0
-116 43 0
-116 112 0
116 -43 -112 0
117 -43 115 0
-117 43 115 0
-118 115 0
117 -118 -43 0
-117 -118 43 0
117 118 43 -115 0
-117 118 -43 -115 0
-119 115 0
117 -119 43 0
-117 -119 -43 0
117 119 -43 -115 0
-117 119 43 -115 0
-120 117 0
-120 115 0
-120 -43 0
120 -117 43 -115 0
121 117 -115 0
121 -117 115 0
-121 117 115 0
-121 -117 -115 0
-122 117 0
-122 115 0
122 -117 -115 0
123 52 -111 0
123 -52 111 0
-123 52 111 0
-123 -52 -111 0
124 56 -74 0
124 -56 74 0
-124 56 74 0
-124 -56 -74 0
-125 52 0
-125 74 0
-125 111 -56 0
-125 -111 56 0
125 -52 111 56 -74 0
125 -52 -111 -56 -74 0
126 52 -124 0
126 -52 124 0
-126 52 124 0
-126 -52 -124 0
-127 52 0
-127 124 0
127 -52 -124 0
128 -52 126 0
-128 52 126 0
-129 126 0
128 -129 -52 0
-128 -129 52 0
128 129 52 -126 0
-128 129 -52 -126 0
-130 126 0
128 -130 52 0
-128 -130 -52 0
128 130 -52 -126 0
-128 130 52 -126 0
-131 128 0
-131 126 0
-131 -52 0
131 -128 52 -126 0
132 128 -126 0
132 -128 126 0
-132 128 126 0
-132 -128 -126 0
-133 128 0
-133 126 0
133 -128 -126 0
134 60 -123 0
134 -60 123 0
-134 60 123 0
-134 -60 -123 0
135 64 -74 0
135 -64 74 0
-135 64 74 0
-135 -64 -74 0
-136 60 0
-136 74 0
-136 123 -64 0
-136 -123 64 0
136 -60 123 64 -74 0
136 -60 -123 -64 -74 0
137 -135 0
-137 135 0
138 60 -135 0
138 -60 135 0
-138 60 135 0
-138 -60 -135 0
-139 60 0
-139 135 0
139 -60 -135 0
140 -60 138 0
-140 60 138 0
-141 138 0
140 -141 -60 0
-140 -141 60 0
140 141 60 -138 0
-140 141 -60 -138 0
-142 138 0
140 -142 60 0
-140 -142 -60 0
140 142 -60 -138 0
-140 142 60 -138 0
-143 140 0
-143 138 0
-143 -60 0
143 -140 60 -138 0
144 140 -138 0
144 -140 138 0
-144 140 138 0
-144 -140 -138 0
-145 140 0
-145 138 0
145 -140 -138 0
-82 0
-94 0
-98 0
-105 0
-109 0
-117 0
-121 0
-128 0
-132 0
-140 0
-144 0
-134 0
-74 0
